s td 60 6 65
b 1 1 2 14
b 2 12 13 26
b 3 40 53 54
b 4 52 64 65
b 5 2 3 14 15
b 6 11 12 25 26
b 7 3 4 17 31 45 59
b 8 4 5 17 31 45 59
b 9 5 17 19 31 45 59
b 10 5 19 31 33 45 59
b 11 5 19 33 45 47 59
b 12 5 19 33 47 59 61
b 13 5 7 19 33 47 61
b 14 5 6 7 19
b 15 7 19 21 33 47 61
b 16 7 21 33 35 47 61
b 17 7 21 35 47 49 61
b 18 7 21 35 49 61 63
b 19 7 9 21 35 49 63
b 20 7 8 9 21
b 21 9 21 23 35 49 63
b 22 9 23 35 37 49 63
b 23 9 11 23 37 49 63
b 24 9 10 11 23
b 25 11 23 25 37 49 63
b 26 11 23 24 25 37
b 27 11 25 37 39 49 63
b 28 11 25 26 39
b 29 25 37 39 49 51 63
b 30 25 37 38 39 51
b 31 37 49 50 51 63
b 32 39 51 63 64
b 33 23 35 36 37 49
b 34 9 21 22 23 35
b 35 49 61 62 63
b 36 35 47 48 49 61
b 37 21 33 34 35 47
b 38 7 19 20 21 33
b 39 47 59 60 61
b 40 33 45 46 47 59
b 41 19 31 32 33 45
b 42 5 17 18 19 31
b 43 3 17 31 45 57 59
b 44 3 17 31 43 45 57
b 45 3 17 31 43 55 57
b 46 3 17 29 31 43 55
b 47 3 17 29 41 43 55
b 48 3 17 27 29 41 55
b 49 3 15 17 27 29 41
b 50 3 14 15 27
b 51 3 15 16 17 29
b 52 15 27 28 29 41
b 53 27 41 54 55
b 54 29 41 42 43 55
b 55 17 29 30 31 43
b 56 43 55 56 57
b 57 31 43 44 45 57
b 58 45 57 58 59
b 59 27 40 41 54
b 60 39 51 52 64
1 5
2 6
3 59
4 60
5 50
6 28
7 8
7 43
8 9
9 10
9 42
10 11
10 41
11 12
11 40
12 13
12 39
13 14
13 15
15 16
15 38
16 17
16 37
17 18
17 36
18 19
18 35
19 20
19 21
21 22
21 34
22 23
22 33
23 24
23 25
25 26
25 27
27 28
27 29
29 30
29 31
29 32
32 60
43 44
43 58
44 45
44 57
45 46
45 56
46 47
46 55
47 48
47 54
48 49
48 53
49 50
49 51
49 52
53 59
